Li La Zr  O 
 1.0000000000000000
    -6.6180349999999999    6.6180349999999999    6.3508529999999999
     6.6180349999999999   -6.6180349999999999    6.3508529999999999
     6.6180349999999999    6.6180349999999999   -6.3508529999999999
 Li  La  Zr  O  
  28  12   8  48
Cartesian
  0.0000000000000000  0.0000000000000000  6.3508529999999999
  0.0000000000000000  0.0000000000000000  0.0000000000000000
  6.6180350000000008 -0.0000000000000004  3.1754264999999999
 -0.0000000000000004  6.6180350000000008  3.1754264999999999
  2.3985214807699999  2.3985214807699999  9.5262794999999993
  2.3985214807699999 -2.3985214807699999  3.1754265000000004
  2.3985214807700004  9.0165564807699994  0.0000000000000000
  2.3985214807699999  4.2195135192300004  6.3508530000000007
  4.2195135192300004 -2.3985214807699999  6.3508529999999990
  4.2195135192299995  2.3985214807700004  0.0000000000000000
  4.2195135192299995  4.2195135192299995  3.1754264999999995
 -2.3985214807699999  2.3985214807699999  3.1754265000000004
  1.0657087940850003 11.0856652694149993  0.8782404088109992
  1.0657154121200003  2.1504113486199996  7.2290870579579991
 -2.1504047305849996  7.6837437940849993  4.0536669088109996
  4.4676236513800003 -1.0657154121199996  4.0536732596640004
  5.5523262059149996  2.1504047305849996  2.2971860911890012
 -1.0657154121200001  4.4676236513800003  2.2971924420420002
  2.1504047305850000 -1.0657087940849999  5.4726125911889998
  2.1504113486200001  1.0657154121199999 -0.8782467596639999
  5.5523195878799996  4.4676236513800003  0.8782467596640000
  5.5523262059149987 -4.4676302694149994  7.2290934088109990
  8.7684463486199995  1.0657154121200008  4.0536605579579987
  2.1504047305850000  5.5523262059149996  4.0536669088109996
  1.0657154121200003  8.7684463486199995  2.2971797403360004
  7.6837437940850002 -2.1504047305850005  2.2971860911889999
  4.4676236513800003  5.5523195878799996  5.4726189420419997
  4.4676302694150003  7.6837437940850002 -0.8782404088109992
  0.0000000000000000  0.0000000000000000  9.5262794999999993
  0.0000000000000000  0.0000000000000000  3.1754264999999999
  0.0000000000000000  6.6180349999999999  0.0000000000000000
  6.6180349999999999  0.0000000000000000  0.0000000000000000
  8.3039132358999996  3.3090174999999999  1.5877132500000002
  1.6858782359000000  3.3090175000000004  1.5877132500000002
  3.3090175000000004  1.6858782358999997  4.7631397500000006
 -3.3090174999999999  4.9321567641000001  4.7631397500000006
  4.9321567641000001  3.3090174999999995  7.9385662500000000
 -1.6858782359000002  3.3090174999999999  7.9385662500000000
  9.9270524999999985  1.6858782358999997 -1.5877132500000002
  3.3090174999999999  4.9321567641000001 -1.5877132500000002
  6.6180349999999999  3.3090175000000004  4.7631397499999997
 -0.0000000000000002  3.3090175000000004  4.7631397499999997
  3.3090174999999995  0.0000000000000002  7.9385662499999992
  3.3090175000000004 -0.0000000000000002  1.5877132500000000
  6.6180350000000008  3.3090174999999999 -1.5877132499999997
  6.6180349999999999 -3.3090175000000004  4.7631397499999997
  9.9270525000000003  0.0000000000000000  1.5877132500000002
  3.3090174999999999  6.6180350000000008  1.5877132500000002
  6.1598552008799992  4.0433943718100007  2.8108367309759998
 -0.4581797991199998  2.5746406281899996  2.8108367309759998
  4.0433943718099998 -0.4581797991199996  5.9862632309759993
  4.0433943718099998  0.4581797991199998 -0.3645897690239999
  0.4581797991199998  9.1926756281900008  0.3645897690239996
  0.4581797991200003  4.0433943718099989  6.7154427690239995
  2.5746406281900001  0.4581797991199998  9.8908692690239981
  2.5746406281900001 -0.4581797991200003  3.5400162690240000
  7.0762147991199997  4.0433943718099998 -3.5400162690240000
  0.4581797991199998  2.5746406281900001  9.1616897309760006
  2.5746406281899992  6.1598552008800000  5.9862632309759993
  2.5746406281900001  7.0762147991200006 -0.3645897690240005
  6.1598552008799992  2.5746406281899996  0.3645897690240005
  6.1598552008800000 -2.5746406281899992  6.7154427690240004
  4.0433943718099998  7.0762147991199997 -2.8108367309759998
  4.0433943718099998  6.1598552008800000  3.5400162690239991
  0.7274941154100008  7.9739777190100005  4.3270520779020005
  7.3455291154100006 -1.3559427190100006  4.3270520779019996
  1.3559427190100002  0.7274941154100000  1.1516255779020002
  1.3559427190100002 -0.7274941154100003  7.5024785779019991
  5.8905408845900000  5.2620922809899993 -1.1516255779020002
  5.8905408845900000 -5.2620922809899993  5.1992274220979988
  5.2620922809900001 -0.7274941154099999  2.0238009220979998
 -1.3559427190099997  7.3455291154099998  2.0238009220980002
  5.8905408845899991  1.3559427190100002  4.3270520779019996
 -0.7274941154099999  5.2620922809900001  4.3270520779019996
  5.2620922809900001  7.3455291154100006  1.1516255779019993
 11.8801272809899992 -0.7274941154099999  1.1516255779019993
  7.3455291154100006  5.2620922809900001  5.1992274220979988
  0.7274941154099996  1.3559427190100004  5.1992274220980006
  1.3559427190100006  5.8905408845899991  2.0238009220980002
  7.9739777190100014  0.7274941154100003  2.0238009220980002
  8.6143387856099984  3.6633868021099998 -0.9048187286160001
  1.9963037856099999  2.9546481978899997 -0.9048187286160001
  3.6633868021099998  1.9963037856099994  2.2706077713840003
  3.6633868021100002 -1.9963037856099999  8.6214607713839992
  4.6217312143900005  2.9546481978900001 -2.2706077713840003
  4.6217312143899996 -2.9546481978899997  4.0802452286160005
 -3.6633868021100011  4.6217312143900013  7.2556717286160000
  2.9546481978900001  1.9963037856099994  7.2556717286159991
  4.6217312143900005  3.6633868021099998  5.4460342713839998
 -1.9963037856100003  2.9546481978900001  5.4460342713839998
  2.9546481978900005  8.6143387856100002  2.2706077713840012
  9.5726831978900009 -1.9963037856099999  2.2706077713839994
  8.6143387856100002  2.9546481978900001  4.0802452286160014
  1.9963037856099994  3.6633868021099998  4.0802452286160005
  3.6633868021100002  4.6217312143899996  0.9048187286160001
 10.2814218021099997  1.9963037856099994  0.9048187286160001
