Cu
 1.0000000000000000
     3.3500000000000001    0.0000000000000000    0.0000000000000000
     0.0000000000000000    3.3500000000000001    0.0000000000000000
     0.0000000000000000    0.0000000000000000    3.3500000000000001
 Cu 
   1
Cartesian
  0.0000000000000000  0.0000000000000000  0.0000000000000000
